(set-logic QF_LIA)
(declare-fun x0 () Int)
(declare-fun x1 () Int)
(declare-fun x2 () Int)
(declare-fun x3 () Int)
(declare-fun x4 () Int)
(declare-fun x5 () Int)
(declare-fun x6 () Int)
(declare-fun x7 () Int)
(declare-fun x8 () Int)
(declare-fun x9 () Int)
(declare-fun A0 () Bool)
(declare-fun A2 () Bool)
(declare-fun A4 () Bool)
(declare-fun A5 () Bool)
(declare-fun A6 () Bool)
(declare-fun A8 () Bool)
(declare-fun A9 () Bool)
(assert (let ((.def_0 (* (- 1) x4))) (let ((.def_1 (< .def_0 1))) (let ((.def_2 (and .def_1 A6))) (let ((.def_3 (not .def_2))) (let ((.def_4 (* 1 x4))) (let ((.def_5 (* 1 x2))) (let ((.def_6 (+ .def_5 .def_4))) (let ((.def_7 (< .def_6 1))) (let ((.def_8 (* 1 x1))) (let ((.def_9 (+ .def_0 .def_8))) (let ((.def_10 (< .def_9 (- 1)))) (let ((.def_11 (and .def_10 .def_7))) (let ((.def_12 (not .def_11))) (let ((.def_13 (and .def_12 .def_3))) (let ((.def_14 (not A0))) (let ((.def_15 (and .def_14 A8))) (let ((.def_16 (not A4))) (let ((.def_17 (* (- 1) x8))) (let ((.def_18 (* 1 x6))) (let ((.def_19 (+ .def_18 .def_17))) (let ((.def_20 (< .def_19 1))) (let ((.def_21 (not .def_20))) (let ((.def_22 (and .def_21 .def_16))) (let ((.def_23 (not .def_22))) (let ((.def_24 (or .def_23 .def_15))) (let ((.def_25 (or .def_24 .def_13))) (let ((.def_26 (not .def_25))) (let ((.def_27 (* (- 1) x3))) (let ((.def_28 (< .def_27 (- 1)))) (let ((.def_29 (= .def_28 A0))) (let ((.def_30 (not .def_29))) (let ((.def_31 (< .def_4 1))) (let ((.def_32 (not .def_31))) (let ((.def_33 (not .def_1))) (let ((.def_34 (or .def_33 .def_32))) (let ((.def_35 (and .def_34 .def_30))) (let ((.def_36 (not .def_35))) (let ((.def_37 (< .def_8 1))) (let ((.def_38 (not A2))) (let ((.def_39 (and .def_38 .def_37))) (let ((.def_40 (not .def_39))) (let ((.def_41 (* (- 1) x1))) (let ((.def_42 (* 1 x5))) (let ((.def_43 (+ .def_42 .def_41))) (let ((.def_44 (< .def_43 1))) (let ((.def_45 (not .def_44))) (let ((.def_46 (* 1 x8))) (let ((.def_47 (* (- 1) x2))) (let ((.def_48 (+ .def_47 .def_46))) (let ((.def_49 (< .def_48 (- 1)))) (let ((.def_50 (not .def_49))) (let ((.def_51 (and .def_50 .def_45))) (let ((.def_52 (not .def_51))) (let ((.def_53 (or .def_52 .def_40))) (let ((.def_54 (not .def_53))) (let ((.def_55 (or .def_54 .def_36))) (let ((.def_56 (and .def_55 .def_26))) (let ((.def_57 (not .def_56))) (let ((.def_58 (* (- 1) x7))) (let ((.def_59 (+ .def_58 .def_17))) (let ((.def_60 (< .def_59 (- 1)))) (let ((.def_61 (and .def_16 .def_60))) (let ((.def_62 (not .def_61))) (let ((.def_63 (not A5))) (let ((.def_64 (and .def_63 A4))) (let ((.def_65 (and .def_64 .def_62))) (let ((.def_66 (not A8))) (let ((.def_67 (< .def_46 (- 1)))) (let ((.def_68 (or .def_67 .def_66))) (let ((.def_69 (not .def_68))) (let ((.def_70 (* 1 x3))) (let ((.def_71 (+ .def_70 .def_47))) (let ((.def_72 (< .def_71 (- 1)))) (let ((.def_73 (not A9))) (let ((.def_74 (and .def_73 .def_72))) (let ((.def_75 (not .def_74))) (let ((.def_76 (and .def_75 .def_69))) (let ((.def_77 (not .def_76))) (let ((.def_78 (= .def_77 .def_65))) (let ((.def_79 (not .def_78))) (let ((.def_80 (< .def_42 (- 1)))) (let ((.def_81 (< .def_17 1))) (let ((.def_82 (= .def_81 .def_80))) (let ((.def_83 (not .def_82))) (let ((.def_84 (+ .def_4 .def_18))) (let ((.def_85 (< .def_84 (- 1)))) (let ((.def_86 (+ .def_5 .def_42))) (let ((.def_87 (< .def_86 (- 1)))) (let ((.def_88 (and .def_87 .def_85))) (let ((.def_89 (not .def_88))) (let ((.def_90 (and .def_89 .def_83))) (let ((.def_91 (not .def_90))) (let ((.def_92 (* (- 1) x6))) (let ((.def_93 (+ .def_41 .def_92))) (let ((.def_94 (< .def_93 1))) (let ((.def_95 (and A8 .def_94))) (let ((.def_96 (* (- 1) x9))) (let ((.def_97 (* 1 x7))) (let ((.def_98 (+ .def_97 .def_96))) (let ((.def_99 (< .def_98 1))) (let ((.def_100 (not .def_99))) (let ((.def_101 (or .def_63 .def_100))) (let ((.def_102 (not .def_101))) (let ((.def_103 (or .def_102 .def_95))) (let ((.def_104 (or .def_103 .def_91))) (let ((.def_105 (not .def_104))) (let ((.def_106 (or .def_105 .def_79))) (let ((.def_107 (not .def_106))) (let ((.def_108 (or .def_107 .def_57))) (let ((.def_109 (not .def_108))) (let ((.def_110 (<= x9 1))) (let ((.def_111 (<= 0 x9))) (let ((.def_112 (<= x8 1))) (let ((.def_113 (<= 0 x8))) (let ((.def_114 (<= x7 1))) (let ((.def_115 (<= 0 x7))) (let ((.def_116 (<= x6 1))) (let ((.def_117 (<= 0 x6))) (let ((.def_118 (<= x5 1))) (let ((.def_119 (<= 0 x5))) (let ((.def_120 (<= x4 1))) (let ((.def_121 (<= 0 x4))) (let ((.def_122 (<= x3 1))) (let ((.def_123 (<= 0 x3))) (let ((.def_124 (<= x2 1))) (let ((.def_125 (<= 0 x2))) (let ((.def_126 (<= x1 1))) (let ((.def_127 (<= 0 x1))) (let ((.def_128 (<= x0 1))) (let ((.def_129 (<= 0 x0))) (let ((.def_130 (and .def_129 .def_128 .def_127 .def_126 .def_125 .def_124 .def_123 .def_122 .def_121 .def_120 .def_119 .def_118 .def_117 .def_116 .def_115 .def_114 .def_113 .def_112 .def_111 .def_110 .def_109))) .def_130))))))))))))))))))))))))))))))))))))))))))))))))))))))))))))))))))))))))))))))))))))))))))))))))))))))))))))))))))))))))))))))))))))
(check-sat)
